$molecule
-2 1
  O   -0.3020517   -0.0030488   -0.0608248
  H    0.7723046   -0.1693890    0.0424309
  H   -0.3867279    0.9094388   -0.6547275
  F    1.4777795   -0.9068063    0.4062690
  F   -1.1363580    1.4995667   -1.1682408
$end

$rem
jobtype opt
method hf
basis 6-31g
threads 4
input_bohr true
mem_total 10000
!QSYS wt=01:00:00
$end
