$molecule
0 1
  F    0.1654340    0.3629310    0.0948891
  H   -0.7681508    0.3529982    0.7175341
  F   -0.8466398   -0.6421835    0.2048763
  H   -0.6033177   -1.5162606   -0.4555417
  F    0.2719916   -0.8454581   -0.6634505
  Li    0.9622579    0.0385514   -0.6256800
$end

$rem
jobtype opt
method b3lyp
basis 3-21++g
input_bohr true
threads 1
mem_total 10000
!QSYS wt=01:00:00
$end
