$molecule
0 1
  O    0.6889327    0.0000000    0.7113184
  F   -0.0000000    0.0000000    1.8397001
  H    0.0000000    0.0000000    0.0000000
$end

$rem
jobtype opt
method blyp
basis 6-31g
input_bohr true
threads 1
mem_total 10000
!QSYS wt=01:00:00
$end

